(set-logic QF_LIA)
(declare-fun x0 () Int)
(declare-fun x1 () Int)
(declare-fun x2 () Int)
(declare-fun x3 () Int)
(declare-fun x4 () Int)
(declare-fun x5 () Int)
(declare-fun x6 () Int)
(declare-fun x7 () Int)
(declare-fun x8 () Int)
(declare-fun x9 () Int)
(declare-fun A0 () Bool)
(declare-fun A1 () Bool)
(declare-fun A2 () Bool)
(declare-fun A3 () Bool)
(declare-fun A4 () Bool)
(declare-fun A5 () Bool)
(declare-fun A6 () Bool)
(declare-fun A7 () Bool)
(declare-fun A8 () Bool)
(declare-fun A9 () Bool)
(assert (let ((.def_0 (* 1 x8))) (let ((.def_1 (< .def_0 (- 1)))) (let ((.def_2 (not .def_1))) (let ((.def_3 (* (- 1) x9))) (let ((.def_4 (< .def_3 (- 1)))) (let ((.def_5 (or .def_4 .def_2))) (let ((.def_6 (not .def_5))) (let ((.def_7 (* (- 1) x0))) (let ((.def_8 (< .def_7 1))) (let ((.def_9 (not .def_8))) (let ((.def_10 (or .def_9 A5))) (let ((.def_11 (and .def_10 .def_6))) (let ((.def_12 (not .def_11))) (let ((.def_13 (* 1 x5))) (let ((.def_14 (* 1 x7))) (let ((.def_15 (+ .def_14 .def_13))) (let ((.def_16 (< .def_15 (- 1)))) (let ((.def_17 (* 1 x1))) (let ((.def_18 (+ .def_17 .def_7))) (let ((.def_19 (< .def_18 1))) (let ((.def_20 (not .def_19))) (let ((.def_21 (and .def_20 .def_16))) (let ((.def_22 (not .def_21))) (let ((.def_23 (* (- 1) x3))) (let ((.def_24 (+ .def_7 .def_23))) (let ((.def_25 (< .def_24 1))) (let ((.def_26 (not .def_25))) (let ((.def_27 (or A1 .def_26))) (let ((.def_28 (not .def_27))) (let ((.def_29 (and .def_28 .def_22))) (let ((.def_30 (or .def_29 .def_12))) (let ((.def_31 (* 1 x4))) (let ((.def_32 (< .def_31 1))) (let ((.def_33 (or A8 .def_32))) (let ((.def_34 (not A5))) (let ((.def_35 (not A6))) (let ((.def_36 (= .def_35 .def_34))) (let ((.def_37 (not .def_36))) (let ((.def_38 (and .def_37 .def_33))) (let ((.def_39 (not A3))) (let ((.def_40 (* (- 1) x5))) (let ((.def_41 (+ .def_40 .def_23))) (let ((.def_42 (< .def_41 1))) (let ((.def_43 (not .def_42))) (let ((.def_44 (or .def_43 .def_39))) (let ((.def_45 (not .def_44))) (let ((.def_46 (< .def_13 1))) (let ((.def_47 (not .def_46))) (let ((.def_48 (and .def_47 A4))) (let ((.def_49 (not .def_48))) (let ((.def_50 (or .def_49 .def_45))) (let ((.def_51 (not .def_50))) (let ((.def_52 (and .def_51 .def_38))) (let ((.def_53 (not .def_52))) (let ((.def_54 (and .def_53 .def_30))) (let ((.def_55 (* (- 1) x7))) (let ((.def_56 (* 1 x0))) (let ((.def_57 (+ .def_56 .def_55))) (let ((.def_58 (< .def_57 1))) (let ((.def_59 (not .def_58))) (let ((.def_60 (or A6 .def_59))) (let ((.def_61 (* (- 1) x8))) (let ((.def_62 (* 1 x6))) (let ((.def_63 (+ .def_62 .def_61))) (let ((.def_64 (< .def_63 1))) (let ((.def_65 (and .def_64 A7))) (let ((.def_66 (or .def_65 .def_60))) (let ((.def_67 (not .def_66))) (let ((.def_68 (+ .def_56 .def_14))) (let ((.def_69 (< .def_68 1))) (let ((.def_70 (or .def_69 A2))) (let ((.def_71 (not .def_70))) (let ((.def_72 (+ .def_31 .def_23))) (let ((.def_73 (< .def_72 (- 1)))) (let ((.def_74 (and .def_73 .def_47))) (let ((.def_75 (and .def_74 .def_71))) (let ((.def_76 (or .def_75 .def_67))) (let ((.def_77 (not A9))) (let ((.def_78 (or .def_39 .def_77))) (let ((.def_79 (< .def_23 1))) (let ((.def_80 (not .def_79))) (let ((.def_81 (+ .def_62 .def_14))) (let ((.def_82 (< .def_81 (- 1)))) (let ((.def_83 (and .def_82 .def_80))) (let ((.def_84 (= .def_83 .def_78))) (let ((.def_85 (or A2 A4))) (let ((.def_86 (not .def_85))) (let ((.def_87 (* (- 1) x1))) (let ((.def_88 (+ .def_87 .def_62))) (let ((.def_89 (< .def_88 (- 1)))) (let ((.def_90 (= A6 .def_89))) (let ((.def_91 (or .def_90 .def_86))) (let ((.def_92 (not .def_91))) (let ((.def_93 (or .def_92 .def_84))) (let ((.def_94 (or .def_93 .def_76))) (let ((.def_95 (not .def_94))) (let ((.def_96 (and .def_95 .def_54))) (let ((.def_97 (< .def_31 (- 1)))) (let ((.def_98 (not .def_97))) (let ((.def_99 (or .def_98 A7))) (let ((.def_100 (and A9 .def_39))) (let ((.def_101 (= .def_100 .def_99))) (let ((.def_102 (* (- 1) x2))) (let ((.def_103 (< .def_102 1))) (let ((.def_104 (= A7 .def_103))) (let ((.def_105 (< .def_102 (- 1)))) (let ((.def_106 (not .def_105))) (let ((.def_107 (< .def_62 1))) (let ((.def_108 (not .def_107))) (let ((.def_109 (or .def_108 .def_106))) (let ((.def_110 (or .def_109 .def_104))) (let ((.def_111 (or .def_110 .def_101))) (let ((.def_112 (< .def_14 (- 1)))) (let ((.def_113 (not A7))) (let ((.def_114 (and .def_113 .def_112))) (let ((.def_115 (not .def_114))) (let ((.def_116 (+ .def_55 .def_0))) (let ((.def_117 (< .def_116 1))) (let ((.def_118 (not A2))) (let ((.def_119 (and .def_118 .def_117))) (let ((.def_120 (not .def_119))) (let ((.def_121 (or .def_120 .def_115))) (let ((.def_122 (not .def_121))) (let ((.def_123 (+ .def_23 .def_87))) (let ((.def_124 (< .def_123 (- 1)))) (let ((.def_125 (not .def_124))) (let ((.def_126 (+ .def_3 .def_23))) (let ((.def_127 (< .def_126 1))) (let ((.def_128 (not .def_127))) (let ((.def_129 (and .def_128 .def_125))) (let ((.def_130 (* (- 1) x4))) (let ((.def_131 (< .def_130 1))) (let ((.def_132 (not .def_131))) (let ((.def_133 (and .def_4 .def_132))) (let ((.def_134 (= .def_133 .def_129))) (let ((.def_135 (and .def_134 .def_122))) (let ((.def_136 (not .def_135))) (let ((.def_137 (or .def_136 .def_111))) (let ((.def_138 (not .def_137))) (let ((.def_139 (or .def_4 A0))) (let ((.def_140 (not .def_139))) (let ((.def_141 (+ .def_14 .def_61))) (let ((.def_142 (< .def_141 1))) (let ((.def_143 (not .def_142))) (let ((.def_144 (or .def_118 .def_143))) (let ((.def_145 (not .def_144))) (let ((.def_146 (or .def_145 .def_140))) (let ((.def_147 (< .def_61 1))) (let ((.def_148 (not .def_147))) (let ((.def_149 (or .def_107 .def_148))) (let ((.def_150 (or A9 .def_108))) (let ((.def_151 (or .def_150 .def_149))) (let ((.def_152 (not .def_151))) (let ((.def_153 (and .def_152 .def_146))) (let ((.def_154 (not .def_153))) (let ((.def_155 (< .def_13 (- 1)))) (let ((.def_156 (not .def_155))) (let ((.def_157 (* 1 x9))) (let ((.def_158 (+ .def_0 .def_157))) (let ((.def_159 (< .def_158 1))) (let ((.def_160 (= .def_159 .def_156))) (let ((.def_161 (not .def_160))) (let ((.def_162 (< .def_87 (- 1)))) (let ((.def_163 (not .def_162))) (let ((.def_164 (and .def_163 A1))) (let ((.def_165 (not .def_164))) (let ((.def_166 (or .def_165 .def_161))) (let ((.def_167 (and A2 .def_113))) (let ((.def_168 (not .def_167))) (let ((.def_169 (* 1 x3))) (let ((.def_170 (< .def_169 (- 1)))) (let ((.def_171 (not A0))) (let ((.def_172 (or .def_171 .def_170))) (let ((.def_173 (or .def_172 .def_168))) (let ((.def_174 (not .def_173))) (let ((.def_175 (or .def_174 .def_166))) (let ((.def_176 (not .def_175))) (let ((.def_177 (or .def_176 .def_154))) (let ((.def_178 (not .def_177))) (let ((.def_179 (or .def_178 .def_138))) (let ((.def_180 (not .def_179))) (let ((.def_181 (and .def_180 .def_96))) (let ((.def_182 (not .def_181))) (let ((.def_183 (or .def_34 A9))) (let ((.def_184 (< .def_14 1))) (let ((.def_185 (not .def_184))) (let ((.def_186 (or .def_185 A4))) (let ((.def_187 (not .def_186))) (let ((.def_188 (or .def_187 .def_183))) (let ((.def_189 (not .def_188))) (let ((.def_190 (and .def_39 .def_171))) (let ((.def_191 (not .def_190))) (let ((.def_192 (< .def_130 (- 1)))) (let ((.def_193 (not .def_192))) (let ((.def_194 (and .def_193 A3))) (let ((.def_195 (not .def_194))) (let ((.def_196 (or .def_195 .def_191))) (let ((.def_197 (or .def_196 .def_189))) (let ((.def_198 (or .def_34 A0))) (let ((.def_199 (not .def_198))) (let ((.def_200 (+ .def_61 .def_169))) (let ((.def_201 (< .def_200 1))) (let ((.def_202 (not .def_201))) (let ((.def_203 (and .def_202 .def_77))) (let ((.def_204 (and .def_203 .def_199))) (let ((.def_205 (not .def_204))) (let ((.def_206 (* (- 1) x6))) (let ((.def_207 (+ .def_23 .def_206))) (let ((.def_208 (< .def_207 (- 1)))) (let ((.def_209 (not .def_208))) (let ((.def_210 (* 1 x2))) (let ((.def_211 (+ .def_14 .def_210))) (let ((.def_212 (< .def_211 (- 1)))) (let ((.def_213 (and .def_212 .def_209))) (let ((.def_214 (or A3 A2))) (let ((.def_215 (or .def_214 .def_213))) (let ((.def_216 (and .def_215 .def_205))) (let ((.def_217 (not .def_216))) (let ((.def_218 (and .def_217 .def_197))) (let ((.def_219 (not .def_218))) (let ((.def_220 (not .def_4))) (let ((.def_221 (or .def_220 .def_39))) (let ((.def_222 (< .def_61 (- 1)))) (let ((.def_223 (not .def_222))) (let ((.def_224 (+ .def_13 .def_3))) (let ((.def_225 (< .def_224 (- 1)))) (let ((.def_226 (not .def_225))) (let ((.def_227 (= .def_226 .def_223))) (let ((.def_228 (not .def_227))) (let ((.def_229 (and .def_228 .def_221))) (let ((.def_230 (not .def_229))) (let ((.def_231 (+ .def_7 .def_40))) (let ((.def_232 (< .def_231 1))) (let ((.def_233 (< .def_7 (- 1)))) (let ((.def_234 (and .def_233 .def_232))) (let ((.def_235 (not .def_234))) (let ((.def_236 (< .def_23 (- 1)))) (let ((.def_237 (= .def_236 .def_98))) (let ((.def_238 (not .def_237))) (let ((.def_239 (or .def_238 .def_235))) (let ((.def_240 (and .def_239 .def_230))) (let ((.def_241 (not .def_240))) (let ((.def_242 (< .def_17 1))) (let ((.def_243 (not .def_242))) (let ((.def_244 (or .def_9 .def_243))) (let ((.def_245 (+ .def_206 .def_17))) (let ((.def_246 (< .def_245 (- 1)))) (let ((.def_247 (not A4))) (let ((.def_248 (or .def_247 .def_246))) (let ((.def_249 (or .def_248 .def_244))) (let ((.def_250 (not .def_249))) (let ((.def_251 (and .def_113 .def_147))) (let ((.def_252 (< .def_157 1))) (let ((.def_253 (not .def_252))) (let ((.def_254 (not A1))) (let ((.def_255 (= .def_254 .def_253))) (let ((.def_256 (and .def_255 .def_251))) (let ((.def_257 (not .def_256))) (let ((.def_258 (or .def_257 .def_250))) (let ((.def_259 (or .def_258 .def_241))) (let ((.def_260 (not .def_259))) (let ((.def_261 (or .def_260 .def_219))) (let ((.def_262 (not .def_261))) (let ((.def_263 (+ .def_102 .def_13))) (let ((.def_264 (< .def_263 1))) (let ((.def_265 (not .def_264))) (let ((.def_266 (or A9 .def_265))) (let ((.def_267 (not .def_266))) (let ((.def_268 (< .def_206 1))) (let ((.def_269 (not .def_268))) (let ((.def_270 (and .def_35 .def_269))) (let ((.def_271 (or .def_270 .def_267))) (let ((.def_272 (+ .def_157 .def_17))) (let ((.def_273 (< .def_272 (- 1)))) (let ((.def_274 (not .def_273))) (let ((.def_275 (and .def_274 .def_118))) (let ((.def_276 (and A4 .def_35))) (let ((.def_277 (and .def_276 .def_275))) (let ((.def_278 (and .def_277 .def_271))) (let ((.def_279 (not .def_278))) (let ((.def_280 (and A3 .def_98))) (let ((.def_281 (not .def_280))) (let ((.def_282 (and .def_77 .def_35))) (let ((.def_283 (and .def_282 .def_281))) (let ((.def_284 (not .def_283))) (let ((.def_285 (+ .def_157 .def_31))) (let ((.def_286 (< .def_285 1))) (let ((.def_287 (not .def_286))) (let ((.def_288 (+ .def_14 .def_23))) (let ((.def_289 (< .def_288 1))) (let ((.def_290 (not .def_289))) (let ((.def_291 (and .def_290 .def_287))) (let ((.def_292 (not .def_291))) (let ((.def_293 (+ .def_14 .def_62))) (let ((.def_294 (< .def_293 (- 1)))) (let ((.def_295 (or .def_294 .def_171))) (let ((.def_296 (not .def_295))) (let ((.def_297 (and .def_296 .def_292))) (let ((.def_298 (not .def_297))) (let ((.def_299 (or .def_298 .def_284))) (let ((.def_300 (not .def_299))) (let ((.def_301 (and .def_300 .def_279))) (let ((.def_302 (= A3 .def_79))) (let ((.def_303 (not .def_302))) (let ((.def_304 (< .def_0 1))) (let ((.def_305 (and .def_304 .def_254))) (let ((.def_306 (or .def_305 .def_303))) (let ((.def_307 (< .def_206 (- 1)))) (let ((.def_308 (not .def_307))) (let ((.def_309 (or A5 .def_308))) (let ((.def_310 (or .def_9 .def_34))) (let ((.def_311 (or .def_310 .def_309))) (let ((.def_312 (and .def_311 .def_306))) (let ((.def_313 (not .def_312))) (let ((.def_314 (or .def_171 .def_269))) (let ((.def_315 (+ .def_0 .def_210))) (let ((.def_316 (< .def_315 1))) (let ((.def_317 (not .def_316))) (let ((.def_318 (+ .def_206 .def_102))) (let ((.def_319 (< .def_318 1))) (let ((.def_320 (or .def_319 .def_317))) (let ((.def_321 (not .def_320))) (let ((.def_322 (or .def_321 .def_314))) (let ((.def_323 (not .def_322))) (let ((.def_324 (not .def_304))) (let ((.def_325 (or .def_79 .def_324))) (let ((.def_326 (not .def_325))) (let ((.def_327 (+ .def_14 .def_17))) (let ((.def_328 (< .def_327 (- 1)))) (let ((.def_329 (not .def_328))) (let ((.def_330 (+ .def_7 .def_14))) (let ((.def_331 (< .def_330 (- 1)))) (let ((.def_332 (and .def_331 .def_329))) (let ((.def_333 (or .def_332 .def_326))) (let ((.def_334 (not .def_333))) (let ((.def_335 (or .def_334 .def_323))) (let ((.def_336 (not .def_335))) (let ((.def_337 (= .def_336 .def_313))) (let ((.def_338 (not .def_337))) (let ((.def_339 (or .def_338 .def_301))) (let ((.def_340 (= .def_339 .def_262))) (let ((.def_341 (and .def_340 .def_182))) (let ((.def_342 (<= x9 1))) (let ((.def_343 (<= 0 x9))) (let ((.def_344 (<= x8 1))) (let ((.def_345 (<= 0 x8))) (let ((.def_346 (<= x7 1))) (let ((.def_347 (<= 0 x7))) (let ((.def_348 (<= x6 1))) (let ((.def_349 (<= 0 x6))) (let ((.def_350 (<= x5 1))) (let ((.def_351 (<= 0 x5))) (let ((.def_352 (<= x4 1))) (let ((.def_353 (<= 0 x4))) (let ((.def_354 (<= x3 1))) (let ((.def_355 (<= 0 x3))) (let ((.def_356 (<= x2 1))) (let ((.def_357 (<= 0 x2))) (let ((.def_358 (<= x1 1))) (let ((.def_359 (<= 0 x1))) (let ((.def_360 (<= x0 1))) (let ((.def_361 (<= 0 x0))) (let ((.def_362 (and .def_361 .def_360 .def_359 .def_358 .def_357 .def_356 .def_355 .def_354 .def_353 .def_352 .def_351 .def_350 .def_349 .def_348 .def_347 .def_346 .def_345 .def_344 .def_343 .def_342 .def_341))) .def_362))))))))))))))))))))))))))))))))))))))))))))))))))))))))))))))))))))))))))))))))))))))))))))))))))))))))))))))))))))))))))))))))))))))))))))))))))))))))))))))))))))))))))))))))))))))))))))))))))))))))))))))))))))))))))))))))))))))))))))))))))))))))))))))))))))))))))))))))))))))))))))))))))))))))))))))))))))))))))))))))))))))))))))))))))))))))))))))))))))))))))))
(check-sat)
